NAME : mtspf.pid8683.gtsp.85530712.tour
COMMENT : Length = 85530712
COMMENT : Found by LKH [Keld Helsgaun] Fri Feb 28 23:34:52 2025
TYPE : TOUR
DIMENSION : 45
TOUR_SECTION
1
22
23
24
25
20
21
18
19
7
8
9
6
16
17
14
15
26
27
28
29
4
38
39
40
41
37
34
35
36
2
31
32
33
30
3
13
10
11
12
5
44
45
42
43
-1
EOF
